(set-option :smt.auto-config false)
(set-option :smt.mbqi false)
(set-option :sat.random_seed 488)
(set-option :smt.random_seed 599)
(set-option :nlsat.seed 611)
(set-option :memory_max_size 6000)
(declare-fun f (Int) Int)
(declare-sort RegExStr 0)
(declare-sort RMode 0)
(declare-fun g (Int) Int)
(assert (! (forall ((x0py0 Int)) (! (not (<= (f x0py0) (f (+ (- 1) x0py0)))) :pattern ((g x0py0)) )) :named A0))
(assert (! (= (f 0) 1) :named A1))
(assert (! (= (f 2) 0) :named A2))
(check-sat)
(get-info :reason-unknown)
